n = 31;
lu = [|-275, 162
      |-692, 576
      |-264, 569
      |-646, 810
      |-376, -77
      |-445, 199
      |-835, 569
      |115, 585
      |806, 942
      |-400, 677
      |-211, 376
      |508, 688
      |237, 922
      |575, 945
      |-763, -215
      |-944, 91
      |-938, -764
      |53, 517
      |-194, 536
      |-910, -263
      |55, 421
      |-914, -856
      |-481, -296
      |-800, -640
      |-625, -264
      |-811, 196
      |18, 771
      |-791, -222
      |-632, -359
      |-804, 219
      |419, 901|];
